5 15 1
6 6 5 4 5 4 5 4 6 4 6 4 6 4 6 7 4 7 4 7 4 8 3 8 3 8 3 6 7 4 7 4 7 4 8 3 8 3 8 3 6 7 4 7 4 7 4 8 3 8 3 8 3 6 7 4 7 4 7 4 8 3 8 3 8 3 6 7 4 7 4 7 4 8 3 8 3 8 3
6 6 5 5 5 5 5 5 6 9 6 9 6 9 6 7 13 7 13 7 13 8 17 8 17 8 17 6 7 13 7 13 7 13 8 17 8 17 8 17 6 7 13 7 13 7 13 8 17 8 17 8 17 6 7 13 7 13 7 13 8 17 8 17 8 17 6 7 13 7 13 7 13 8 17 8 17 8 17
10 24 5 24 5 24 5 24 6 24 6 24 6 24 7 25 7 25 7 25 8 25 8 25 8 25 9 25 9 25 9 25 10 26 10 26 10 26 11 26 11 26 11 26 12 27 12 27 12 27 24 13 27 13 27 13 27 15 28 15 28 15 28 5 24 5 24 5 24 6 24 6 24 6 24 7 25 7 25 7 25 8 25 8 25 8 25 9 25 9 25 9 25 10 26 10 26 10 26 21 13 27 13 27 13 27 15 28 15 28 15 28 5 24 5 24 5 24 6 24 6 24 6 24 7 25 7 25 7 25 8 25 8 25 8 25 9 25 9 25 9 25 21 12 27 12 27 12 27 13 27 13 27 13 27 15 28 15 28 15 28 5 24 5 24 5 24 6 24 6 24 6 24 7 25 7 25 7 25 8 25 8 25 8 25 21 12 27 12 27 12 27 13 27 13 27 13 27 15 28 15 28 15 28 5 24 5 24 5 24 6 24 6 24 6 24 7 25 7 25 7 25 8 25 8 25 8 25 21 12 27 12 27 12 27 13 27 13 27 13 27 15 28 15 28 15 28 5 24 5 24 5 24 6 24 6 24 6 24 7 25 7 25 7 25 8 25 8 25 8 25 21 12 27 12 27 12 27 13 27 13 27 13 27 15 28 15 28 15 28 5 24 5 24 5 24 6 24 6 24 6 24 7 25 7 25 7 25 8 25 8 25 8 25 21 12 27 12 27 12 27 13 27 13 27 13 27 15 28 15 28 15 28 5 24 5 24 5 24 6 24 6 24 6 24 7 25 7 25 7 25 8 25 8 25 8 25 21 12 27 12 27 12 27 13 27 13 27 13 27 15 28 15 28 15 28 5 24 5 24 5 24 6 24 6 24 6 24 7 25 7 25 7 25 8 25 8 25 8 25 21 12 27 12 27 12 27 13 27 13 27 13 27 15 28 15 28 15 28 5 24 5 24 5 24 6 24 6 24 6 24 7 25 7 25 7 25 8 25 8 25 8 25
10 6 5 8 5 8 5 8 6 8 6 8 6 8 6 7 8 7 8 7 8 8 8 8 8 8 8 6 7 8 7 8 7 8 8 8 8 8 8 8 6 7 8 7 8 7 8 8 8 8 8 8 8 6 7 8 7 8 7 8 8 8 8 8 8 8 6 7 8 7 8 7 8 8 8 8 8 8 8 6 7 8 7 8 7 8 8 8 8 8 8 8 6 7 8 7 8 7 8 8 8 8 8 8 8 6 7 8 7 8 7 8 8 8 8 8 8 8 6 7 8 7 8 7 8 8 8 8 8 8 8
1 9 5 6 5 6 5 6 5 6 5 6 5 6 5 6 5 6 5 6
